<?xml version = "1.0" encoding="UTF-8" standalone="yes"?>
<CPLEXSolution version="1.2">
 <header
   problemName=""
   objectiveValue="3"
   solutionTypeValue="1"
   solutionTypeString="basic"
   solutionStatusValue="1"
   solutionStatusString="optimal"
   solutionMethodString="dual"
   primalFeasible="1"
   dualFeasible="1"
   simplexIterations="1"
   writeLevel="1"/>
 <quality
   epRHS="9.9999999999999995e-07"
   epOpt="9.9999999999999995e-07"
   maxPrimalInfeas="0"
   maxDualInfeas="0"
   maxPrimalResidual="0"
   maxDualResidual="0"
   maxX="1"
   maxPi="1"
   maxSlack="23"
   maxRedCost="0"
   kappa="14.080915928015042"/>
 <linearConstraints>
  <constraint name="R0" index="0" status="BS" slack="0" dual="-0"/>
  <constraint name="R1" index="1" status="BS" slack="-1" dual="-0"/>
  <constraint name="R2" index="2" status="BS" slack="-1" dual="-0"/>
  <constraint name="R3" index="3" status="BS" slack="-2" dual="-0"/>
  <constraint name="R4" index="4" status="BS" slack="-1" dual="-0"/>
  <constraint name="R5" index="5" status="BS" slack="-1" dual="-0"/>
  <constraint name="R6" index="6" status="BS" slack="0" dual="-0"/>
  <constraint name="R7" index="7" status="LL" slack="0" dual="0"/>
  <constraint name="R8" index="8" status="LL" slack="0" dual="0"/>
  <constraint name="C18" index="9" status="BS" slack="-4" dual="-0"/>
  <constraint name="C19" index="10" status="BS" slack="-2" dual="-0"/>
  <constraint name="C20" index="11" status="BS" slack="-2" dual="-0"/>
  <constraint name="C21" index="12" status="BS" slack="-2" dual="-0"/>
  <constraint name="C22" index="13" status="BS" slack="-3" dual="-0"/>
  <constraint name="C23" index="14" status="BS" slack="-3" dual="-0"/>
  <constraint name="C24" index="15" status="BS" slack="-3" dual="-0"/>
  <constraint name="C25" index="16" status="BS" slack="-3" dual="-0"/>
  <constraint name="C26" index="17" status="BS" slack="-3" dual="-0"/>
  <constraint name="C27" index="18" status="BS" slack="-3" dual="-0"/>
  <constraint name="C28" index="19" status="BS" slack="-3" dual="-0"/>
  <constraint name="C29" index="20" status="BS" slack="-3" dual="-0"/>
  <constraint name="C30" index="21" status="BS" slack="-3" dual="-0"/>
  <constraint name="C31" index="22" status="BS" slack="-4" dual="-0"/>
  <constraint name="C32" index="23" status="BS" slack="-4" dual="-0"/>
  <constraint name="C33" index="24" status="BS" slack="-4" dual="-0"/>
  <constraint name="C34" index="25" status="BS" slack="-4" dual="-0"/>
  <constraint name="C35" index="26" status="BS" slack="-4" dual="-0"/>
  <constraint name="C36" index="27" status="BS" slack="-4" dual="-0"/>
  <constraint name="C37" index="28" status="BS" slack="-21" dual="-0"/>
  <constraint name="C38" index="29" status="BS" slack="-12" dual="-0"/>
  <constraint name="C39" index="30" status="BS" slack="-16" dual="-0"/>
  <constraint name="C40" index="31" status="BS" slack="-10" dual="-0"/>
  <constraint name="C41" index="32" status="BS" slack="-20" dual="-0"/>
  <constraint name="C42" index="33" status="BS" slack="-23" dual="-0"/>
  <constraint name="C43" index="34" status="BS" slack="-11" dual="-0"/>
  <constraint name="C44" index="35" status="BS" slack="-10" dual="-0"/>
  <constraint name="C45" index="36" status="BS" slack="-10" dual="-0"/>
  <constraint name="C46" index="37" status="BS" slack="-11" dual="-0"/>
  <constraint name="C47" index="38" status="BS" slack="-10" dual="-0"/>
  <constraint name="C48" index="39" status="BS" slack="-11" dual="-0"/>
  <constraint name="C49" index="40" status="BS" slack="-10" dual="-0"/>
  <constraint name="C50" index="41" status="BS" slack="-11" dual="-0"/>
  <constraint name="C51" index="42" status="BS" slack="-9" dual="-0"/>
  <constraint name="C52" index="43" status="BS" slack="-1" dual="-0"/>
  <constraint name="C53" index="44" status="BS" slack="-12" dual="-0"/>
  <constraint name="C54" index="45" status="BS" slack="-11" dual="-0"/>
  <constraint name="C55" index="46" status="BS" slack="-11" dual="-0"/>
  <constraint name="C56" index="47" status="BS" slack="-13" dual="-0"/>
  <constraint name="C57" index="48" status="BS" slack="-12" dual="-0"/>
  <constraint name="C58" index="49" status="BS" slack="-13" dual="-0"/>
  <constraint name="C59" index="50" status="BS" slack="-12" dual="-0"/>
  <constraint name="C60" index="51" status="BS" slack="-13" dual="-0"/>
  <constraint name="C61" index="52" status="BS" slack="-11" dual="-0"/>
  <constraint name="C62" index="53" status="BS" slack="-12" dual="-0"/>
  <constraint name="C63" index="54" status="BS" slack="-11" dual="-0"/>
  <constraint name="C64" index="55" status="BS" slack="-11" dual="-0"/>
  <constraint name="C65" index="56" status="BS" slack="-12" dual="-0"/>
  <constraint name="C66" index="57" status="BS" slack="-11" dual="-0"/>
  <constraint name="C67" index="58" status="BS" slack="-12" dual="-0"/>
  <constraint name="C68" index="59" status="BS" slack="-11" dual="-0"/>
  <constraint name="C69" index="60" status="BS" slack="-12" dual="-0"/>
  <constraint name="C70" index="61" status="BS" slack="-10" dual="-0"/>
  <constraint name="C71" index="62" status="BS" slack="-8" dual="-0"/>
  <constraint name="C72" index="63" status="BS" slack="-7" dual="-0"/>
  <constraint name="C73" index="64" status="BS" slack="-7" dual="-0"/>
  <constraint name="C74" index="65" status="BS" slack="-9" dual="-0"/>
  <constraint name="C75" index="66" status="BS" slack="-8" dual="-0"/>
  <constraint name="C76" index="67" status="BS" slack="-9" dual="-0"/>
  <constraint name="C77" index="68" status="BS" slack="-8" dual="-0"/>
  <constraint name="C78" index="69" status="BS" slack="-9" dual="-0"/>
  <constraint name="C79" index="70" status="BS" slack="-7" dual="-0"/>
  <constraint name="C80" index="71" status="BS" slack="-8" dual="-0"/>
  <constraint name="C81" index="72" status="BS" slack="-11" dual="-0"/>
  <constraint name="C82" index="73" status="BS" slack="-10" dual="-0"/>
  <constraint name="C83" index="74" status="BS" slack="-10" dual="-0"/>
  <constraint name="C84" index="75" status="BS" slack="-12" dual="-0"/>
  <constraint name="C85" index="76" status="BS" slack="-11" dual="-0"/>
  <constraint name="C86" index="77" status="BS" slack="-12" dual="-0"/>
  <constraint name="C87" index="78" status="BS" slack="-11" dual="-0"/>
  <constraint name="C88" index="79" status="BS" slack="-12" dual="-0"/>
  <constraint name="C89" index="80" status="BS" slack="-10" dual="-0"/>
  <constraint name="C90" index="81" status="BS" slack="-12" dual="-0"/>
  <constraint name="C91" index="82" status="BS" slack="-11" dual="-0"/>
  <constraint name="C92" index="83" status="BS" slack="-11" dual="-0"/>
  <constraint name="C93" index="84" status="BS" slack="-12" dual="-0"/>
  <constraint name="C94" index="85" status="BS" slack="-11" dual="-0"/>
  <constraint name="C95" index="86" status="BS" slack="-12" dual="-0"/>
  <constraint name="C96" index="87" status="BS" slack="-11" dual="-0"/>
  <constraint name="C97" index="88" status="BS" slack="-12" dual="-0"/>
  <constraint name="C98" index="89" status="BS" slack="-10" dual="-0"/>
  <constraint name="C99" index="90" status="BS" slack="-4" dual="-0"/>
  <constraint name="C100" index="91" status="BS" slack="-15" dual="-0"/>
  <constraint name="C101" index="92" status="BS" slack="-14" dual="-0"/>
  <constraint name="C102" index="93" status="BS" slack="-14" dual="-0"/>
  <constraint name="C103" index="94" status="BS" slack="-15" dual="-0"/>
  <constraint name="C104" index="95" status="BS" slack="-14" dual="-0"/>
  <constraint name="C105" index="96" status="BS" slack="-15" dual="-0"/>
  <constraint name="C106" index="97" status="BS" slack="-14" dual="-0"/>
  <constraint name="C107" index="98" status="BS" slack="-15" dual="-0"/>
  <constraint name="C108" index="99" status="BS" slack="-13" dual="-0"/>
  <constraint name="C109" index="100" status="BS" slack="-2" dual="-0"/>
  <constraint name="C110" index="101" status="BS" slack="-5" dual="-0"/>
  <constraint name="C111" index="102" status="BS" slack="-2" dual="-0"/>
  <constraint name="C112" index="103" status="BS" slack="-1" dual="-0"/>
  <constraint name="C113" index="104" status="BS" slack="-1" dual="-0"/>
  <constraint name="C114" index="105" status="BS" slack="-3" dual="-0"/>
  <constraint name="C115" index="106" status="BS" slack="-2" dual="-0"/>
  <constraint name="C116" index="107" status="BS" slack="-3" dual="-0"/>
  <constraint name="C117" index="108" status="BS" slack="-2" dual="-0"/>
  <constraint name="C118" index="109" status="BS" slack="-3" dual="-0"/>
  <constraint name="C119" index="110" status="BS" slack="-1" dual="-0"/>
  <constraint name="C120" index="111" status="LL" slack="0" dual="1"/>
 </linearConstraints>
 <variables>
  <variable name="x0" index="0" status="UL" value="1" reducedCost="-0"/>
  <variable name="x1" index="1" status="LL" value="0" reducedCost="0"/>
  <variable name="x2" index="2" status="LL" value="0" reducedCost="0"/>
  <variable name="x3" index="3" status="LL" value="0" reducedCost="0"/>
  <variable name="x4" index="4" status="BS" value="1" reducedCost="0"/>
  <variable name="x5" index="5" status="BS" value="1" reducedCost="0"/>
  <variable name="x6" index="6" status="BS" value="0" reducedCost="0"/>
  <variable name="x7" index="7" status="LL" value="0" reducedCost="0"/>
  <variable name="x8" index="8" status="LL" value="0" reducedCost="0"/>
 </variables>
 <objectiveValues>
  <objective index="0" name="" value="3"/>
 </objectiveValues>
</CPLEXSolution>
